4	143	143	0	0	0
5	144	103	0	0	0
6	236	184	0	15	15
7	279	240	0	15	15
8	267	244	0	16	16
9	261	225	0	31	31
10	385	247	0	15	15
11	438	307	0	203	203
12	377	329	0	0	0
13	541	340	0	31	31
14	551	408	0	31	31
15	675	367	0	47	47
16	560	371	0	31	31
17	656	417	0	93	93
18	634	486	0	187	187
19	875	490	0	93	93
